;symbolic execution tree
(push)
(assert (le x1 java.lang.String))
(check-sat)
(push)
(assert (le x3 java.lang.String))
(check-sat)
(push)
(assert (le x0 siena.AttributeValue))
(check-sat)
(pop)
(push)
(assert (not (le x0 siena.AttributeValue)))
(check-sat)
(push)
(assert (le x1 java.lang.String))
(check-sat)
(push)
(assert (le x3 java.lang.String))
(check-sat)
(push)
(assert (le x2 java.lang.Double))
(check-sat)
(push)
(assert (le x0 siena.AttributeValue))
(check-sat)
(pop)
(push)
(assert (not (le x0 siena.AttributeValue)))
(check-sat)
(push)
(assert (le x0 siena.AttributeValue))
(check-sat)
(pop)
(push)
(assert (not (le x0 siena.AttributeValue)))
(check-sat)
(push)
(assert (le x3 java.lang.String))
(check-sat)
(pop)
(push)
(assert (not (le x3 java.lang.String)))
(check-sat)
(pop)
(push)
(assert (le x3 java.lang.String))
(check-sat)
(pop)
(push)
(assert (not (le x3 java.lang.String)))
(check-sat)
(pop)
(push)
(assert (le x1 java.lang.String))
(check-sat)
(pop)
(push)
(assert (not (le x1 java.lang.String)))
(check-sat)
(pop)
(pop)
(push)
(assert (le x1 java.lang.String))
(check-sat)
(push)
(assert (le x2 java.lang.Object))
(check-sat)
(push)
(assert (le x2 java.lang.Object))
(check-sat)
(pop)
(push)
(assert (not (le x2 java.lang.Object)))
(check-sat)
(pop)
(push)
(assert (le x0 siena.AttributeValue))
(check-sat)
(pop)
(push)
(assert (not (le x0 siena.AttributeValue)))
(check-sat)
(pop)
(pop)
(push)
(assert (not (le x2 java.lang.Object)))
(check-sat)
(pop)
(pop)
(push)
(assert (not (le x1 java.lang.String)))
(check-sat)
(pop)
(push)
(assert (le x2 java.lang.Object))
(check-sat)
(push)
(assert (le x3 java.lang.String))
(check-sat)
(push)
(assert (le x3 java.lang.String))
(check-sat)
(pop)
(push)
(assert (not (le x3 java.lang.String)))
(check-sat)
(pop)
(pop)
(push)
(assert (not (le x3 java.lang.String)))
(check-sat)
(pop)
(pop)
(push)
(assert (not (le x2 java.lang.Object)))
(check-sat)
(pop)
(pop)
(push)
(assert (le x2 java.lang.Object))
(check-sat)
(push)
(assert (le x2 java.lang.Object))
(check-sat)
(pop)
(push)
(assert (not (le x2 java.lang.Object)))
(check-sat)
(pop)
(pop)
(push)
(assert (not (le x2 java.lang.Object)))
(check-sat)
(pop)
(pop)
(push)
(assert (le x2 java.util.AbstractList))
(check-sat)
(push)
(assert (le x0 siena.AttributeValue))
(check-sat)
(pop)
(push)
(assert (not (le x0 siena.AttributeValue)))
(check-sat)
(push)
(assert (le x1 java.lang.String))
(check-sat)
(pop)
(push)
(assert (not (le x1 java.lang.String)))
(check-sat)
(pop)
(pop)
(pop)
(push)
(assert (le x2 java.io.File))
(check-sat)
(push)
(assert (le x2 java.lang.Object))
(check-sat)
(pop)
(push)
(assert (not (le x2 java.lang.Object)))
(check-sat)
(pop)
(push)
(assert (le x1 java.lang.String))
(check-sat)
(pop)
(push)
(assert (not (le x1 java.lang.String)))
(check-sat)
(pop)
(push)
(assert (le x0 siena.AttributeValue))
(check-sat)
(pop)
(push)
(assert (not (le x0 siena.AttributeValue)))
(check-sat)
(pop)
(push)
(assert (le x0 siena.AttributeValue))
(check-sat)
(pop)
(push)
(assert (not (le x0 siena.AttributeValue)))
(check-sat)
(push)
(assert (le x0 siena.AttributeValue))
(check-sat)
(pop)
(push)
(assert (not (le x0 siena.AttributeValue)))
(check-sat)
(pop)
(pop)
(push)
(assert (le x1 java.lang.String))
(check-sat)
(push)
(assert (le x2 java.lang.Object))
(check-sat)
(pop)
(push)
(assert (not (le x2 java.lang.Object)))
(check-sat)
(pop)
(pop)
(push)
(assert (not (le x1 java.lang.String)))
(check-sat)
(pop)
(pop)
(push)
(assert (le x2 java.lang.String))
(check-sat)
(pop)
(push)
(assert (le x2 java.lang.Long))
(check-sat)
(push)
(assert (le x1 java.lang.String))
(check-sat)
(pop)
(push)
(assert (not (le x1 java.lang.String)))
(check-sat)
(pop)
(push)
(assert (le x3 java.lang.String))
(check-sat)
(pop)
(push)
(assert (not (le x3 java.lang.String)))
(check-sat)
(pop)
(pop)
(push)
(assert (le x2 java.util.AbstractMap))
(check-sat)
(pop)
(push)
(assert (le x2 siena.Subscriber))
(check-sat)
(pop)
(push)
(assert (le x2 java.lang.Integer))
(check-sat)
(push)
(assert (le x3 java.lang.String))
(check-sat)
(pop)
(push)
(assert (not (le x3 java.lang.String)))
(check-sat)
(pop)
(pop)
(push)
(assert (not (le x2 java.net.InetAddress)))
(check-sat)
(push)
(assert (not (le x2 siena.AttributeConstraint)))
(check-sat)
(push)
(assert (not (le x2 siena.Subscriber)))
(check-sat)
(push)
(assert (not (le x2 java.lang.String)))
(check-sat)
(push)
(assert (not (le x2 java.util.AbstractMap)))
(check-sat)
(push)
(assert (le x2 java.lang.Object))
(check-sat)
(push)
(assert (not (le x2 java.io.File)))
(check-sat)
(push)
(assert (not (le x2 siena.AttributeValue)))
(check-sat)
(push)
(assert (le x1 java.lang.String))
(check-sat)
(pop)
(push)
(assert (not (le x1 java.lang.String)))
(check-sat)
(pop)
(push)
(assert (le x0 siena.AttributeValue))
(check-sat)
(pop)
(push)
(assert (not (le x0 siena.AttributeValue)))
(check-sat)
(push)
(assert (le x1 java.lang.String))
(check-sat)
(push)
(assert (le x3 java.lang.String))
(check-sat)
(push)
(assert (le x1 java.lang.String))
(check-sat)
(pop)
(push)
(assert (not (le x1 java.lang.String)))
(check-sat)
(pop)
(push)
(assert (le x3 java.lang.String))
(check-sat)
(pop)
(push)
(assert (not (le x3 java.lang.String)))
(check-sat)
(pop)
(pop)
(push)
(assert (not (le x3 java.lang.String)))
(check-sat)
(pop)
(push)
(assert (le x2 java.lang.Object))
(check-sat)
(pop)
(push)
(assert (not (le x2 java.lang.Object)))
(check-sat)
(pop)
(pop)
(push)
(assert (not (le x1 java.lang.String)))
(check-sat)
(pop)
(push)
(assert (le x2 java.lang.Object))
(check-sat)
(push)
(assert (le x3 java.lang.String))
(check-sat)
(pop)
(push)
(assert (not (le x3 java.lang.String)))
(check-sat)
(pop)
(pop)
(push)
(assert (not (le x2 java.lang.Object)))
(check-sat)
(pop)
(pop)
(push)
(assert (le x2 java.lang.Object))
(check-sat)
(push)
(assert (le x2 java.lang.Object))
(check-sat)
(push)
(assert (le x2 java.lang.Object))
(check-sat)
(pop)
(push)
(assert (not (le x2 java.lang.Object)))
(check-sat)
(pop)
(pop)
(push)
(assert (not (le x2 java.lang.Object)))
(check-sat)
(pop)
(push)
(assert (le x1 java.lang.String))
(check-sat)
(push)
(assert (le x3 java.lang.String))
(check-sat)
(pop)
(push)
(assert (not (le x3 java.lang.String)))
(check-sat)
(pop)
(pop)
(push)
(assert (not (le x1 java.lang.String)))
(check-sat)
(pop)
(push)
(assert (le x1 java.lang.String))
(check-sat)
(pop)
(push)
(assert (not (le x1 java.lang.String)))
(check-sat)
(pop)
(push)
(assert (le x0 siena.AttributeValue))
(check-sat)
(pop)
(push)
(assert (not (le x0 siena.AttributeValue)))
(check-sat)
(push)
(assert (le x2 java.lang.Object))
(check-sat)
(pop)
(push)
(assert (not (le x2 java.lang.Object)))
(check-sat)
(pop)
(push)
(assert (le x3 java.lang.String))
(check-sat)
(pop)
(push)
(assert (not (le x3 java.lang.String)))
(check-sat)
(pop)
(pop)
(pop)
(push)
(assert (not (le x2 java.lang.Object)))
(check-sat)
(pop)
(push)
(assert (le x2 java.lang.Object))
(check-sat)
(push)
(assert (le x1 java.lang.String))
(check-sat)
(pop)
(push)
(assert (not (le x1 java.lang.String)))
(check-sat)
(pop)
(push)
(assert (le x0 siena.AttributeValue))
(check-sat)
(pop)
(push)
(assert (not (le x0 siena.AttributeValue)))
(check-sat)
(push)
(assert (le x3 java.lang.String))
(check-sat)
(pop)
(push)
(assert (not (le x3 java.lang.String)))
(check-sat)
(pop)
(push)
(assert (le x3 java.lang.String))
(check-sat)
(push)
(assert (le x0 siena.AttributeValue))
(check-sat)
(pop)
(push)
(assert (not (le x0 siena.AttributeValue)))
(check-sat)
(push)
(assert (le x3 java.lang.String))
(check-sat)
(pop)
(push)
(assert (not (le x3 java.lang.String)))
(check-sat)
(pop)
(pop)
(push)
(assert (le x3 java.lang.String))
(check-sat)
(pop)
(push)
(assert (not (le x3 java.lang.String)))
(check-sat)
(pop)
(pop)
(push)
(assert (not (le x3 java.lang.String)))
(check-sat)
(pop)
(push)
(assert (le x2 java.lang.Object))
(check-sat)
(pop)
(push)
(assert (not (le x2 java.lang.Object)))
(check-sat)
(pop)
(pop)
(pop)
(push)
(assert (not (le x2 java.lang.Object)))
(check-sat)
(pop)
(push)
(assert (le x2 java.lang.Object))
(check-sat)
(push)
(assert (le x0 siena.AttributeValue))
(check-sat)
(pop)
(push)
(assert (not (le x0 siena.AttributeValue)))
(check-sat)
(push)
(assert (le x2 java.lang.Object))
(check-sat)
(push)
(assert (le x3 java.lang.String))
(check-sat)
(pop)
(push)
(assert (not (le x3 java.lang.String)))
(check-sat)
(pop)
(pop)
(push)
(assert (not (le x2 java.lang.Object)))
(check-sat)
(pop)
(push)
(assert (le x3 java.lang.String))
(check-sat)
(pop)
(push)
(assert (not (le x3 java.lang.String)))
(check-sat)
(pop)
(pop)
(push)
(assert (le x2 java.lang.Object))
(check-sat)
(pop)
(push)
(assert (not (le x2 java.lang.Object)))
(check-sat)
(pop)
(push)
(assert (le x1 java.lang.String))
(check-sat)
(pop)
(push)
(assert (not (le x1 java.lang.String)))
(check-sat)
(pop)
(push)
(assert (le x3 java.lang.String))
(check-sat)
(push)
(assert (le x0 siena.AttributeValue))
(check-sat)
(pop)
(push)
(assert (not (le x0 siena.AttributeValue)))
(check-sat)
(pop)
(push)
(assert (le x0 siena.AttributeValue))
(check-sat)
(pop)
(push)
(assert (not (le x0 siena.AttributeValue)))
(check-sat)
(pop)
(pop)
(push)
(assert (not (le x3 java.lang.String)))
(check-sat)
(pop)
(push)
(assert (le x3 java.lang.String))
(check-sat)
(pop)
(push)
(assert (not (le x3 java.lang.String)))
(check-sat)
(pop)
(push)
(assert (le x0 siena.AttributeValue))
(check-sat)
(pop)
(push)
(assert (not (le x0 siena.AttributeValue)))
(check-sat)
(pop)
(push)
(assert (le x0 siena.AttributeValue))
(check-sat)
(pop)
(push)
(assert (not (le x0 siena.AttributeValue)))
(check-sat)
(push)
(assert (le x0 siena.AttributeValue))
(check-sat)
(pop)
(push)
(assert (not (le x0 siena.AttributeValue)))
(check-sat)
(push)
(assert (le x0 siena.AttributeValue))
(check-sat)
(pop)
(push)
(assert (not (le x0 siena.AttributeValue)))
(check-sat)
(push)
(assert (le x1 java.lang.String))
(check-sat)
(push)
(assert (le x3 java.lang.String))
(check-sat)
(pop)
(push)
(assert (not (le x3 java.lang.String)))
(check-sat)
(pop)
(pop)
(push)
(assert (not (le x1 java.lang.String)))
(check-sat)
(pop)
(pop)
(pop)
(pop)
(push)
(assert (le x0 siena.AttributeValue))
(check-sat)
(pop)
(push)
(assert (not (le x0 siena.AttributeValue)))
(check-sat)
(push)
(assert (le x2 java.lang.Object))
(check-sat)
(push)
(assert (le x1 java.lang.String))
(check-sat)
(pop)
(push)
(assert (not (le x1 java.lang.String)))
(check-sat)
(pop)
(push)
(assert (le x3 java.lang.String))
(check-sat)
(push)
(assert (le x0 siena.AttributeValue))
(check-sat)
(pop)
(push)
(assert (not (le x0 siena.AttributeValue)))
(check-sat)
(pop)
(pop)
(push)
(assert (not (le x3 java.lang.String)))
(check-sat)
(pop)
(push)
(assert (le x0 siena.AttributeValue))
(check-sat)
(pop)
(push)
(assert (not (le x0 siena.AttributeValue)))
(check-sat)
(pop)
(pop)
(push)
(assert (not (le x2 java.lang.Object)))
(check-sat)
(pop)
(pop)
(push)
(assert (le x0 siena.AttributeValue))
(check-sat)
(pop)
(push)
(assert (not (le x0 siena.AttributeValue)))
(check-sat)
(pop)
(push)
(assert (le x1 java.lang.String))
(check-sat)
(pop)
(push)
(assert (not (le x1 java.lang.String)))
(check-sat)
(pop)
(push)
(assert (le x1 java.lang.String))
(check-sat)
(pop)
(push)
(assert (not (le x1 java.lang.String)))
(check-sat)
(pop)
(pop)
(push)
(assert (not (le x2 java.lang.Object)))
(check-sat)
(pop)
(push)
(assert (le x1 java.lang.String))
(check-sat)
(push)
(assert (le x3 java.lang.String))
(check-sat)
(pop)
(push)
(assert (not (le x3 java.lang.String)))
(check-sat)
(pop)
(push)
(assert (le x0 siena.AttributeValue))
(check-sat)
(pop)
(push)
(assert (not (le x0 siena.AttributeValue)))
(check-sat)
(pop)
(pop)
(push)
(assert (not (le x1 java.lang.String)))
(check-sat)
(pop)
(push)
(assert (le x3 java.lang.String))
(check-sat)
(pop)
(push)
(assert (not (le x3 java.lang.String)))
(check-sat)
(pop)
(push)
(assert (le x1 java.lang.String))
(check-sat)
(push)
(assert (le x2 java.lang.Object))
(check-sat)
(pop)
(push)
(assert (not (le x2 java.lang.Object)))
(check-sat)
(pop)
(push)
(assert (le x0 siena.AttributeValue))
(check-sat)
(pop)
(push)
(assert (not (le x0 siena.AttributeValue)))
(check-sat)
(push)
(assert (le x0 siena.AttributeValue))
(check-sat)
(pop)
(push)
(assert (not (le x0 siena.AttributeValue)))
(check-sat)
(push)
(assert (le x3 java.lang.String))
(check-sat)
(pop)
(push)
(assert (not (le x3 java.lang.String)))
(check-sat)
(pop)
(pop)
(pop)
(push)
(assert (le x0 siena.AttributeValue))
(check-sat)
(pop)
(push)
(assert (not (le x0 siena.AttributeValue)))
(check-sat)
(pop)
(pop)
(push)
(assert (not (le x1 java.lang.String)))
(check-sat)
(pop)
(push)
(assert (le x0 siena.AttributeValue))
(check-sat)
(pop)
(push)
(assert (not (le x0 siena.AttributeValue)))
(check-sat)
(push)
(assert (le x3 java.lang.String))
(check-sat)
(push)
(assert (le x0 siena.AttributeValue))
(check-sat)
(pop)
(push)
(assert (not (le x0 siena.AttributeValue)))
(check-sat)
(pop)
(push)
(assert (le x2 java.lang.Object))
(check-sat)
(push)
(assert (le x2 java.lang.Object))
(check-sat)
(pop)
(push)
(assert (not (le x2 java.lang.Object)))
(check-sat)
(pop)
(push)
(assert (le x2 java.lang.Object))
(check-sat)
(pop)
(push)
(assert (not (le x2 java.lang.Object)))
(check-sat)
(pop)
(push)
(assert (le x3 java.lang.String))
(check-sat)
(pop)
(push)
(assert (not (le x3 java.lang.String)))
(check-sat)
(pop)
(pop)
(push)
(assert (not (le x2 java.lang.Object)))
(check-sat)
(pop)
(push)
(assert (le x1 java.lang.String))
(check-sat)
(pop)
(push)
(assert (not (le x1 java.lang.String)))
(check-sat)
(pop)
(pop)
(push)
(assert (not (le x3 java.lang.String)))
(check-sat)
(pop)
(push)
(assert (le x1 java.lang.String))
(check-sat)
(pop)
(push)
(assert (not (le x1 java.lang.String)))
(check-sat)
(pop)
(push)
(assert (le x3 java.lang.String))
(check-sat)
(pop)
(push)
(assert (not (le x3 java.lang.String)))
(check-sat)
(pop)
(pop)
(pop)
(pop)
(pop)
(pop)
(pop)
(pop)
(pop)
(pop)
(push)
(assert (le x2 java.lang.Byte))
(check-sat)
(pop)
(push)
(assert (le x2 siena.AttributeValue))
(check-sat)
(pop)
(push)
(assert (le x2 java.util.AbstractSet))
(check-sat)
(push)
(assert (le x2 java.lang.Object))
(check-sat)
(push)
(assert (le x0 siena.AttributeValue))
(check-sat)
(pop)
(push)
(assert (not (le x0 siena.AttributeValue)))
(check-sat)
(push)
(assert (le x0 siena.AttributeValue))
(check-sat)
(pop)
(push)
(assert (not (le x0 siena.AttributeValue)))
(check-sat)
(pop)
(pop)
(push)
(assert (le x3 java.lang.String))
(check-sat)
(pop)
(push)
(assert (not (le x3 java.lang.String)))
(check-sat)
(pop)
(push)
(assert (le x2 java.lang.Object))
(check-sat)
(pop)
(push)
(assert (not (le x2 java.lang.Object)))
(check-sat)
(pop)
(pop)
(push)
(assert (not (le x2 java.lang.Object)))
(check-sat)
(pop)
(push)
(assert (le x1 java.lang.String))
(check-sat)
(push)
(assert (le x1 java.lang.String))
(check-sat)
(pop)
(push)
(assert (not (le x1 java.lang.String)))
(check-sat)
(pop)
(push)
(assert (le x3 java.lang.String))
(check-sat)
(pop)
(push)
(assert (not (le x3 java.lang.String)))
(check-sat)
(pop)
(push)
(assert (le x3 java.lang.String))
(check-sat)
(push)
(assert (le x1 java.lang.String))
(check-sat)
(pop)
(push)
(assert (not (le x1 java.lang.String)))
(check-sat)
(pop)
(push)
(assert (le x3 java.lang.String))
(check-sat)
(push)
(assert (le x0 siena.AttributeValue))
(check-sat)
(pop)
(push)
(assert (not (le x0 siena.AttributeValue)))
(check-sat)
(push)
(assert (le x2 java.lang.Object))
(check-sat)
(push)
(assert (le x2 java.lang.Object))
(check-sat)
(pop)
(push)
(assert (not (le x2 java.lang.Object)))
(check-sat)
(pop)
(pop)
(push)
(assert (not (le x2 java.lang.Object)))
(check-sat)
(pop)
(pop)
(pop)
(push)
(assert (not (le x3 java.lang.String)))
(check-sat)
(pop)
(push)
(assert (le x3 java.lang.String))
(check-sat)
(pop)
(push)
(assert (not (le x3 java.lang.String)))
(check-sat)
(pop)
(push)
(assert (le x1 java.lang.String))
(check-sat)
(push)
(assert (le x3 java.lang.String))
(check-sat)
(push)
(assert (le x2 java.lang.Object))
(check-sat)
(pop)
(push)
(assert (not (le x2 java.lang.Object)))
(check-sat)
(pop)
(pop)
(push)
(assert (not (le x3 java.lang.String)))
(check-sat)
(pop)
(push)
(assert (le x2 java.lang.Object))
(check-sat)
(pop)
(push)
(assert (not (le x2 java.lang.Object)))
(check-sat)
(pop)
(pop)
(push)
(assert (not (le x1 java.lang.String)))
(check-sat)
(pop)
(pop)
(push)
(assert (not (le x3 java.lang.String)))
(check-sat)
(pop)
(push)
(assert (le x0 siena.AttributeValue))
(check-sat)
(pop)
(push)
(assert (not (le x0 siena.AttributeValue)))
(check-sat)
(pop)
(pop)
(push)
(assert (not (le x1 java.lang.String)))
(check-sat)
(pop)
(pop)
(push)
(assert (le x2 siena.AttributeConstraint))
(check-sat)
(pop)
(push)
(assert (le x2 java.net.InetAddress))
(check-sat)
(pop)
(push)
(assert (le x0 siena.AttributeValue))
(check-sat)
(pop)
(push)
(assert (not (le x0 siena.AttributeValue)))
(check-sat)
(pop)
(pop)
(push)
(assert (not (le x3 java.lang.String)))
(check-sat)
(pop)
(push)
(assert (le x0 siena.AttributeValue))
(check-sat)
(pop)
(push)
(assert (not (le x0 siena.AttributeValue)))
(check-sat)
(push)
(assert (le x3 java.lang.String))
(check-sat)
(push)
(assert (le x1 java.lang.String))
(check-sat)
(push)
(assert (le x3 java.lang.String))
(check-sat)
(pop)
(push)
(assert (not (le x3 java.lang.String)))
(check-sat)
(pop)
(push)
(assert (le x2 java.lang.String))
(check-sat)
(pop)
(push)
(assert (not (le x2 java.lang.String)))
(check-sat)
(pop)
(pop)
(push)
(assert (not (le x1 java.lang.String)))
(check-sat)
(pop)
(pop)
(push)
(assert (not (le x3 java.lang.String)))
(check-sat)
(pop)
(pop)
(pop)
(push)
(assert (not (le x1 java.lang.String)))
(check-sat)
(pop)
(push)
(assert (le x1 java.lang.String))
(check-sat)
(pop)
(push)
(assert (not (le x1 java.lang.String)))
(check-sat)
(pop)
(push)
(assert (le x1 java.lang.String))
(check-sat)
(push)
(assert (le x0 siena.AttributeValue))
(check-sat)
(pop)
(push)
(assert (not (le x0 siena.AttributeValue)))
(check-sat)
(push)
(assert (le x3 java.lang.String))
(check-sat)
(pop)
(push)
(assert (not (le x3 java.lang.String)))
(check-sat)
(pop)
(push)
(assert (le x0 siena.AttributeValue))
(check-sat)
(pop)
(push)
(assert (not (le x0 siena.AttributeValue)))
(check-sat)
(push)
(assert (le x3 java.lang.String))
(check-sat)
(pop)
(push)
(assert (not (le x3 java.lang.String)))
(check-sat)
(pop)
(pop)
(push)
(assert (le x2 siena.Tokenizer))
(check-sat)
(pop)
(push)
(assert (not (le x2 siena.Tokenizer)))
(check-sat)
(push)
(assert (le x2 siena.Tokenizer))
(check-sat)
(pop)
(push)
(assert (not (le x2 siena.Tokenizer)))
(check-sat)
(push)
(assert (le x0 siena.AttributeValue))
(check-sat)
(pop)
(push)
(assert (not (le x0 siena.AttributeValue)))
(check-sat)
(push)
(assert (le x1 java.lang.String))
(check-sat)
(push)
(assert (le x3 java.lang.String))
(check-sat)
(pop)
(push)
(assert (not (le x3 java.lang.String)))
(check-sat)
(pop)
(push)
(assert (le x0 siena.AttributeValue))
(check-sat)
(pop)
(push)
(assert (not (le x0 siena.AttributeValue)))
(check-sat)
(pop)
(pop)
(push)
(assert (not (le x1 java.lang.String)))
(check-sat)
(pop)
(push)
(assert (le x3 java.lang.String))
(check-sat)
(push)
(assert (le x0 siena.AttributeValue))
(check-sat)
(pop)
(push)
(assert (not (le x0 siena.AttributeValue)))
(check-sat)
(pop)
(pop)
(push)
(assert (not (le x3 java.lang.String)))
(check-sat)
(pop)
(push)
(assert (le x1 java.lang.String))
(check-sat)
(pop)
(push)
(assert (not (le x1 java.lang.String)))
(check-sat)
(pop)
(push)
(assert (le x1 java.lang.String))
(check-sat)
(pop)
(push)
(assert (not (le x1 java.lang.String)))
(check-sat)
(pop)
(push)
(assert (le x0 siena.AttributeValue))
(check-sat)
(pop)
(push)
(assert (not (le x0 siena.AttributeValue)))
(check-sat)
(push)
(assert (le x3 java.lang.String))
(check-sat)
(pop)
(push)
(assert (not (le x3 java.lang.String)))
(check-sat)
(pop)
(pop)
(push)
(assert (le x1 java.lang.String))
(check-sat)
(pop)
(push)
(assert (not (le x1 java.lang.String)))
(check-sat)
(pop)
(push)
(assert (le x0 siena.AttributeValue))
(check-sat)
(pop)
(push)
(assert (not (le x0 siena.AttributeValue)))
(check-sat)
(pop)
(push)
(assert (le x3 java.lang.String))
(check-sat)
(pop)
(push)
(assert (not (le x3 java.lang.String)))
(check-sat)
(pop)
(push)
(assert (le x3 java.lang.String))
(check-sat)
(push)
(assert (le x3 java.lang.String))
(check-sat)
(pop)
(push)
(assert (not (le x3 java.lang.String)))
(check-sat)
(pop)
(push)
(assert (le x0 siena.AttributeValue))
(check-sat)
(pop)
(push)
(assert (not (le x0 siena.AttributeValue)))
(check-sat)
(push)
(assert (le x0 siena.AttributeValue))
(check-sat)
(pop)
(push)
(assert (not (le x0 siena.AttributeValue)))
(check-sat)
(pop)
(pop)
(pop)
(push)
(assert (not (le x3 java.lang.String)))
(check-sat)
(pop)
(pop)
(push)
(assert (le x1 java.lang.String))
(check-sat)
(pop)
(push)
(assert (not (le x1 java.lang.String)))
(check-sat)
(pop)
(push)
(assert (le x2 siena.Tokenizer))
(check-sat)
(pop)
(push)
(assert (not (le x2 siena.Tokenizer)))
(check-sat)
(pop)
(push)
(assert (le x2 siena.Tokenizer))
(check-sat)
(pop)
(push)
(assert (not (le x2 siena.Tokenizer)))
(check-sat)
(pop)
(pop)
(pop)
(push)
(assert (le x0 siena.AttributeValue))
(check-sat)
(pop)
(push)
(assert (not (le x0 siena.AttributeValue)))
(check-sat)
(pop)
(push)
(assert (le x3 java.lang.String))
(check-sat)
(pop)
(push)
(assert (not (le x3 java.lang.String)))
(check-sat)
(pop)
(push)
(assert (le x0 siena.AttributeValue))
(check-sat)
(pop)
(push)
(assert (not (le x0 siena.AttributeValue)))
(check-sat)
(pop)
(push)
(assert (le x1 java.lang.String))
(check-sat)
(push)
(assert (le x1 java.lang.String))
(check-sat)
(pop)
(push)
(assert (not (le x1 java.lang.String)))
(check-sat)
(pop)
(push)
(assert (le x3 java.lang.String))
(check-sat)
(push)
(assert (le x0 siena.AttributeValue))
(check-sat)
(pop)
(push)
(assert (not (le x0 siena.AttributeValue)))
(check-sat)
(push)
(assert (le x2 java.lang.Double))
(check-sat)
(push)
(assert (le x1 java.lang.String))
(check-sat)
(pop)
(push)
(assert (not (le x1 java.lang.String)))
(check-sat)
(pop)
(pop)
(push)
(assert (le x2 java.util.AbstractList))
(check-sat)
(pop)
(push)
(assert (le x2 java.io.File))
(check-sat)
(pop)
(push)
(assert (le x2 java.lang.String))
(check-sat)
(pop)
(push)
(assert (le x2 java.lang.Long))
(check-sat)
(pop)
(push)
(assert (le x2 java.util.AbstractMap))
(check-sat)
(pop)
(push)
(assert (le x2 siena.Subscriber))
(check-sat)
(pop)
(push)
(assert (le x2 java.lang.Integer))
(check-sat)
(pop)
(push)
(assert (not (le x2 java.net.InetAddress)))
(check-sat)
(push)
(assert (not (le x2 siena.AttributeConstraint)))
(check-sat)
(push)
(assert (not (le x2 siena.Subscriber)))
(check-sat)
(push)
(assert (not (le x2 java.lang.String)))
(check-sat)
(push)
(assert (not (le x2 java.util.AbstractMap)))
(check-sat)
(push)
(assert (le x2 java.lang.Object))
(check-sat)
(push)
(assert (not (le x2 java.io.File)))
(check-sat)
(push)
(assert (not (le x2 siena.AttributeValue)))
(check-sat)
(pop)
(pop)
(pop)
(pop)
(pop)
(pop)
(pop)
(pop)
(push)
(assert (le x2 java.lang.Byte))
(check-sat)
(pop)
(push)
(assert (le x2 siena.AttributeValue))
(check-sat)
(pop)
(push)
(assert (le x2 java.util.AbstractSet))
(check-sat)
(push)
(assert (le x0 siena.AttributeValue))
(check-sat)
(pop)
(push)
(assert (not (le x0 siena.AttributeValue)))
(check-sat)
(pop)
(pop)
(push)
(assert (le x2 siena.AttributeConstraint))
(check-sat)
(pop)
(push)
(assert (le x2 java.net.InetAddress))
(check-sat)
(pop)
(pop)
(pop)
(push)
(assert (not (le x3 java.lang.String)))
(check-sat)
(pop)
(push)
(assert (le x0 siena.AttributeValue))
(check-sat)
(pop)
(push)
(assert (not (le x0 siena.AttributeValue)))
(check-sat)
(pop)
(push)
(assert (le x0 siena.AttributeValue))
(check-sat)
(pop)
(push)
(assert (not (le x0 siena.AttributeValue)))
(check-sat)
(pop)
(pop)
(push)
(assert (not (le x1 java.lang.String)))
(check-sat)
(pop)
(pop)
(pop)
(push)
(assert (not (le x1 java.lang.String)))
(check-sat)
(pop)
(pop)
(pop)
(push)
(assert (not (le x3 java.lang.String)))
(check-sat)
(pop)
(pop)
(push)
(assert (not (le x1 java.lang.String)))
(check-sat)
(pop)
